/* Objective function */
max: ;

/* Constraints */
R1: +x2 <= 0;
R2: +x1 <= 0;
0 x1 <= 1;
R4: +x1 <= 0;
0 x1 <= 0;
0 x1 <= 0;
R7: +x2 >= 0;
R8: +x1 >= 0;
R9: +x2 >= 0;
0 x1 >= 1;
0 x1 >= 1;
R12: +x1 >= 0;
R13: +x2 >= 0;
